c read Graph
c width = 191
c time = 440 ms
c width = 17
c time = 616 ms
c width = 16
c time = 774 ms
c width = 15
c time = 833 ms
c width = 14
c time = 1725 ms
c width = 13
c time = 4239 ms
c width = 13
c time = 4336 ms
s td 181 14 204
b 1 1 2 18
b 2 2 3 18 19
b 3 15 16 33 34
b 4 3 18 19 35
b 5 15 33 34 51
b 6 154 171 172 189
b 7 170 186 187 203
b 8 154 172 189 190
b 9 170 186 202 203
b 10 3 4 5 21
b 11 3 5 20 21 36 52
b 12 5 20 21 36 38 52 54
b 13 20 36 37 38 54
b 14 5 21 36 38 52 54 70
b 15 36 52 53 54 70
b 16 5 21 38 52 54 70 86
b 17 52 69 70 86
b 18 5 21 23 38 39 54 70 86
b 19 5 23 38 39 54 56 70 72 86
b 20 5 23 39 54 56 70 72 86 88
b 21 5 23 39 56 70 72 86 88 104
b 22 70 86 87 88 104
b 23 5 23 39 41 56 57 72 86 88 104
b 24 23 39 40 41 57
b 25 5 23 41 56 57 72 75 86 88 90 91 104
b 26 5 23 41 57 59 72 75 86 88 90 91 104
b 27 41 57 58 59 75
b 28 5 23 41 59 72 75 86 88 90 91 104 107 122 123
b 29 72 88 90 104 106 107 122 123
b 30 88 104 105 106 122
b 31 72 88 89 90 106
b 32 5 23 41 59 75 86 91 104 107 122 123 139 154 155
b 33 5 23 41 59 75 91 107 123 139 154 155 157 175 191
b 34 5 23 41 59 75 91 107 123 139 141 155 157 175 191
b 35 5 23 41 59 75 91 107 123 141 155 157 159 175 191
b 36 5 23 41 59 75 91 107 123 125 141 159 175 191
b 37 107 123 124 125 141
b 38 5 23 41 59 75 91 107 125 141 143 159 175 191
b 39 125 141 142 143 159
b 40 5 23 41 59 75 91 107 109 125 143 159 175 191
b 41 91 107 108 109 125
b 42 5 23 41 59 75 91 109 125 127 143 159 175 191
b 43 109 125 126 127 143
b 44 5 9 23 25 41 59 75 91 109 127 143 159 175 191
b 45 9 25 27 41 43 59 75 91 109 127 143 159 175 191
b 46 25 27 41 42 43 59 75 91 109 127 143 159 175 191
b 47 9 25 26 27 43
b 48 9 27 43 59 75 91 93 109 127 143 159 175 191
b 49 75 91 92 93 109
b 50 9 27 43 59 75 93 109 111 127 143 159 175 191
b 51 9 27 43 59 75 77 93 111 127 143 159 175 191
b 52 9 27 43 59 77 93 95 111 127 143 159 175 191
b 53 77 93 94 95 111
b 54 9 27 43 59 61 77 95 111 127 143 159 175 191
b 55 9 27 43 45 61 77 95 111 127 143 159 175 191
b 56 27 43 44 45 61
b 57 9 27 45 61 77 95 111 127 143 159 175 177 191 195
b 58 9 27 45 61 77 95 111 127 143 159 161 177 191 195
b 59 9 27 45 61 77 95 111 127 143 161 177 178 191 195
b 60 9 27 45 61 77 95 111 127 143 161 178 179 191 195
b 61 9 27 45 61 77 95 111 127 143 161 179 195 197 199
b 62 179 195 196 197
b 63 9 27 45 61 77 95 111 127 143 145 161 179 197 199
b 64 9 27 45 61 77 95 111 127 129 145 161 179 197 199
b 65 9 27 45 61 77 95 111 129 145 161 163 179 197 199
b 66 9 27 45 61 77 95 111 129 145 163 179 181 197 199
b 67 9 27 45 61 77 95 111 129 145 147 163 181 199
b 68 9 27 45 61 77 95 111 129 147 163 165 181 199
b 69 9 27 45 61 77 95 111 113 129 147 165 181 199
b 70 9 27 45 61 77 95 113 129 131 147 165 181 199
b 71 113 129 130 131 147
b 72 9 27 45 61 77 95 113 131 147 149 165 181 199
b 73 131 147 148 149 165
b 74 9 27 45 61 77 79 95 113 131 149 165 181 199
b 75 61 77 78 79 95
b 76 9 27 45 61 79 95 97 113 131 149 165 181 199
b 77 9 27 45 61 79 97 113 115 131 149 165 181 199
b 78 97 113 114 115 131
b 79 79 95 96 97 113
b 80 95 111 112 113 129
b 81 147 163 164 165 181
b 82 129 145 146 147 163
b 83 181 197 198 199
b 84 163 179 180 181 197
b 85 145 161 162 163 179
b 86 111 127 128 129 145
b 87 127 143 144 145 161
b 88 143 159 160 161 177
b 89 159 175 177 191 193 195
b 90 175 191 192 193
b 91 177 193 194 195
b 92 159 175 176 177 193
b 93 43 59 60 61 77
b 94 59 75 76 77 93
b 95 93 109 110 111 127
b 96 5 7 9 23 25 41
b 97 7 23 24 25 41
b 98 5 6 7 23
b 99 7 8 9 25
b 100 141 157 158 159 175
b 101 123 139 140 141 157
b 102 139 154 155 157 173 175 191
b 103 154 155 173 190 191
b 104 154 155 172 173 190
b 105 157 173 174 175 191
b 106 139 155 156 157 173
b 107 86 104 122 138 139 154 155
b 108 86 104 120 122 138 154
b 109 104 120 121 122 138
b 110 86 103 104 120
b 111 120 137 138 154
b 112 56 57 72 74 75 90 91
b 113 56 72 73 74 90
b 114 54 70 71 72 88
b 115 38 54 55 56 72
b 116 5 21 22 23 39
b 117 3 20 35 36 52
b 118 3 19 20 35 36
b 119 45 61 62 63 79
b 120 115 131 132 133 149
b 121 63 79 80 81 97
b 122 81 97 98 99 115
b 123 99 115 116 117 133
b 124 102 118 133 134 149 165 181 183 199
b 125 13 29 47 64 82 84 100 102 118
b 126 102 117 118 133 134 149 165 181 199
b 127 9 27 45 61 79 97 115 131 133 149 165 181 199
b 128 9 27 45 61 63 79 97 115 133 149 165 181 199
b 129 9 27 45 63 79 81 97 115 133 149 165 181 199
b 130 9 27 45 63 81 97 99 115 133 149 165 181 199
b 131 9 27 45 63 81 99 115 117 133 149 165 181 199
b 132 13 29 45 47 63 64 82 100 102 118
b 133 13 29 45 63 64 81 82 100 102 118
b 134 13 29 45 63 81 82 99 100 102 118
b 135 13 29 45 63 81 99 100 102 117 118
b 136 9 13 27 29 45 63 81 99 102 117 118
b 137 9 27 45 63 81 99 102 117 118 133 149 165 181 199
b 138 102 117 118 133 149 165 181 199
b 139 165 181 182 183 199
b 140 102 118 133 134 149 165 167 183 199
b 141 149 165 166 167 183
b 142 102 118 133 134 149 151 167 183 199
b 143 102 118 134 151 167 169 170 183 199
b 144 151 167 169 170 183 199 201
b 145 151 167 169 170 183 185 201
b 146 151 167 168 169 185
b 147 169 170 185 201 202
b 148 169 170 185 186 202
b 149 167 183 184 185 201
b 150 183 199 200 201
b 151 102 118 134 151 152 169 170
b 152 102 118 134 136 152 170
b 153 102 118 119 136
b 154 118 134 135 136 152
b 155 136 152 153 170
b 156 133 149 150 151 167
b 157 84 100 101 102 118
b 158 13 29 47 64 66 82 84 100 102
b 159 66 82 83 84 100
b 160 13 29 47 48 64 66 82 84 102
b 161 13 29 31 47 48 66 84 102
b 162 13 29 30 31 47
b 163 13 31 48 66 68 84 102
b 164 68 84 85 102
b 165 13 31 48 50 66 68 84
b 166 13 31 32 48 50 66 68
b 167 13 15 31 32 50 68
b 168 13 14 15 31
b 169 15 32 50 51 68
b 170 15 32 33 50 51
b 171 32 48 49 50 66
b 172 50 66 67 68 84
b 173 48 64 65 66 82
b 174 29 45 46 47 63
b 175 9 11 13 27 29 45
b 176 9 10 11 27
b 177 11 12 13 29
b 178 11 27 28 29 45
b 179 187 203 204
b 180 171 188 189
b 181 16 17 34
1 2
2 4
3 181
3 5
4 118
5 170
6 180
6 8
7 179
7 9
8 104
9 148
10 11
11 117
11 12
12 14
12 13
14 16
14 15
16 18
16 17
18 116
18 19
19 115
19 20
20 114
20 21
21 23
21 22
23 25
23 24
25 112
25 26
26 28
26 27
28 32
28 29
29 31
29 30
32 107
32 33
33 102
33 34
34 101
34 35
35 100
35 36
36 38
36 37
38 40
38 39
40 42
40 41
42 44
42 43
44 96
44 45
45 48
45 47
45 46
48 50
48 49
50 95
50 51
51 94
51 52
52 54
52 53
54 93
54 55
55 57
55 56
57 89
57 58
58 88
58 59
59 60
60 61
61 63
61 62
63 87
63 64
64 86
64 65
65 85
65 66
66 83
66 84
66 67
67 82
67 68
68 81
68 69
69 80
69 70
70 71
70 72
72 74
72 73
74 76
74 75
76 79
76 77
77 127
77 78
89 92
89 91
89 90
96 99
96 97
96 98
102 106
102 103
102 105
103 104
107 108
108 111
108 110
108 109
112 113
117 118
119 128
120 127
121 129
122 130
123 131
124 140
124 139
124 126
125 157
125 158
125 132
126 138
127 128
128 129
129 130
130 131
131 137
132 174
132 133
133 134
134 135
135 136
136 175
136 137
137 138
140 142
140 141
142 143
142 156
143 144
143 151
144 150
144 145
145 147
145 149
145 146
147 148
151 152
152 153
152 155
152 154
158 159
158 160
160 173
160 161
161 162
161 163
163 164
163 165
165 172
165 166
166 171
166 167
167 168
167 169
169 170
175 176
175 177
175 178
